tdma_table=[|0,10,14,3,1,2,4,0,8,13,9,11,7,5,12,6|
2,0,1,10,4,11,13,0,3,8,9,5,12,6,7,14|
0,8,0,9,10,1,5,6,14,13,7,2,11,4,12,3|
5,8,14,0,3,10,1,9,7,4,13,0,6,11,12,2|
3,0,11,1,0,9,14,4,6,13,10,12,7,2,5,8|
9,4,10,13,14,0,0,11,3,6,1,2,8,12,7,5|
10,14,8,13,9,0,0,5,1,3,4,6,7,12,2,11|
11,10,1,13,7,4,3,0,12,0,9,2,14,5,6,8|
12,9,1,3,2,10,8,13,0,0,11,6,14,4,5,7|
6,2,3,9,12,8,0,5,10,0,14,13,11,1,4,7|
8,5,2,6,7,3,12,9,0,1,0,10,4,14,11,13|
11,14,2,6,7,13,8,4,12,9,1,0,0,10,3,5|
4,3,10,5,14,6,1,8,12,11,7,9,0,2,0,13|
6,0,8,4,1,13,10,11,14,5,12,3,7,0,9,2|
3,13,7,6,14,5,10,12,9,4,0,8,1,11,0,2|
11,8,9,0,4,12,13,14,10,1,2,3,7,5,6,0|
|];
tdma_max=15;
max_time=50;
src=[1,1,2,2,3,3,4,4,5,5,5,6,6,7,7,8,8,9,10,10,11,11,12,12,13];
dest=[1,2,2,5,3,4,4,5,5,6,10,6,7,7,8,8,9,9,10,11,11,12,12,13,13];
messages={m1,m2,m3,m4,m5,m6,m7,m8,m9,m10,m11,m12,m13,m14,m15,m16,m17,m18,m19,m20,m21,m22,m23,m24,m25};
durations={37,0,83,0,37,0,83,0,47,0,0,5,0,132,0,1,0,68,5,0,132,0,1,0,68};
actors={a1,a1,a2,a2,a3,a3,a4,a4,a5,a5,a5,a6,a6,a7,a7,a8,a8,a9,a9,a10,a10,a11,a11,a12,a12,a13,a13};
dependencies=[|0,0,0,0,0,0,0,0,0,0,0,0,0,0,0,0,0,0,0,0,0,0,0,0,0|
1,0,0,0,0,0,0,0,0,0,0,0,0,0,0,0,0,0,0,0,0,0,0,0,0|
0,1,0,0,0,0,0,0,0,0,0,0,0,0,0,0,0,0,0,0,0,0,0,0,0|
0,1,1,0,0,0,0,0,0,0,0,0,0,0,0,0,0,0,0,0,0,0,0,0,0|
0,0,0,0,0,0,0,0,0,0,0,0,0,0,0,0,0,0,0,0,0,0,0,0,0|
0,0,0,0,1,0,0,0,0,0,0,0,0,0,0,0,0,0,0,0,0,0,0,0,0|
0,0,0,0,0,1,0,0,0,0,0,0,0,0,0,0,0,0,0,0,0,0,0,0,0|
0,0,0,0,0,1,1,0,0,0,0,0,0,0,0,0,0,0,0,0,0,0,0,0,0|
0,0,0,1,0,0,0,1,0,0,0,0,0,0,0,0,0,0,0,0,0,0,0,0,0|
0,0,0,1,0,0,0,1,1,0,0,0,0,0,0,0,0,0,0,0,0,0,0,0,0|
0,0,0,1,0,0,0,1,1,0,0,0,0,0,0,0,0,0,0,0,0,0,0,0,0|
0,0,0,0,0,0,0,0,0,1,0,0,0,0,0,0,0,0,0,0,0,0,0,0,0|
0,0,0,0,0,0,0,0,0,1,0,1,0,0,0,0,0,0,0,0,0,0,0,0,0|
0,0,0,0,0,0,0,0,0,0,0,0,1,0,0,0,0,0,0,0,0,0,0,0,0|
0,0,0,0,0,0,0,0,0,0,0,0,1,1,0,0,0,0,0,0,0,0,0,0,0|
0,0,0,0,0,0,0,0,0,0,0,0,0,0,1,0,0,0,0,0,0,0,0,0,0|
0,0,0,0,0,0,0,0,0,0,0,0,0,0,1,1,0,0,0,0,0,0,0,0,0|
0,0,0,0,0,0,0,0,0,0,0,0,0,0,0,0,1,0,0,0,0,0,0,0,0|
0,0,0,0,0,0,0,0,0,0,1,0,0,0,0,0,0,0,0,0,0,0,0,0,0|
0,0,0,0,0,0,0,0,0,0,1,0,0,0,0,0,0,0,1,0,0,0,0,0,0|
0,0,0,0,0,0,0,0,0,0,0,0,0,0,0,0,0,0,0,1,0,0,0,0,0|
0,0,0,0,0,0,0,0,0,0,0,0,0,0,0,0,0,0,0,1,1,0,0,0,0|
0,0,0,0,0,0,0,0,0,0,0,0,0,0,0,0,0,0,0,0,0,1,0,0,0|
0,0,0,0,0,0,0,0,0,0,0,0,0,0,0,0,0,0,0,0,0,1,1,0,0|
0,0,0,0,0,0,0,0,0,0,0,0,0,0,0,0,0,0,0,0,0,0,0,1,0|
|];
